Code 734
Dimension, Median 
   128       16     
 Facility, Client, Transportation Cost
     1        1           4
     1        2           1
     1        3           4
     1        5           3
     1        9           3
     1       17           2
     1       33           2
     1       65           1
     2        1           2
     2        2           3
     2        4           0
     2        6           0
     2       10           2
     2       18           2
     2       34           0
     2       66           4
     3        1           2
     3        3           1
     3        4           2
     3        7           0
     3       11           0
     3       19           3
     3       35           1
     3       67           4
     4        2           1
     4        3           4
     4        4           0
     4        8           1
     4       12           1
     4       20           3
     4       36           3
     4       68           2
     5        1           4
     5        5           0
     5        6           0
     5        7           2
     5       13           2
     5       21           1
     5       37           2
     5       69           4
     6        2           2
     6        5           3
     6        6           1
     6        8           4
     6       14           0
     6       22           4
     6       38           1
     6       70           3
     7        3           4
     7        5           3
     7        7           0
     7        8           3
     7       15           3
     7       23           0
     7       39           3
     7       71           4
     8        4           0
     8        6           2
     8        7           0
     8        8           0
     8       16           4
     8       24           4
     8       40           2
     8       72           4
     9        1           3
     9        9           1
     9       10           2
     9       11           0
     9       13           4
     9       25           0
     9       41           3
     9       73           0
    10        2           0
    10        9           4
    10       10           1
    10       12           2
    10       14           4
    10       26           0
    10       42           0
    10       74           4
    11        3           4
    11        9           0
    11       11           2
    11       12           4
    11       15           2
    11       27           3
    11       43           4
    11       75           4
    12        4           4
    12       10           3
    12       11           2
    12       12           4
    12       16           4
    12       28           0
    12       44           2
    12       76           3
    13        5           3
    13        9           3
    13       13           0
    13       14           0
    13       15           0
    13       29           4
    13       45           2
    13       77           2
    14        6           3
    14       10           3
    14       13           1
    14       14           0
    14       16           0
    14       30           2
    14       46           0
    14       78           3
    15        7           3
    15       11           2
    15       13           4
    15       15           3
    15       16           3
    15       31           4
    15       47           3
    15       79           0
    16        8           4
    16       12           4
    16       14           2
    16       15           4
    16       16           4
    16       32           1
    16       48           1
    16       80           4
    17        1           2
    17       17           4
    17       18           3
    17       19           1
    17       21           4
    17       25           3
    17       49           2
    17       81           0
    18        2           4
    18       17           3
    18       18           2
    18       20           1
    18       22           0
    18       26           3
    18       50           4
    18       82           0
    19        3           1
    19       17           4
    19       19           2
    19       20           2
    19       23           0
    19       27           0
    19       51           0
    19       83           2
    20        4           1
    20       18           3
    20       19           2
    20       20           1
    20       24           0
    20       28           1
    20       52           1
    20       84           4
    21        5           4
    21       17           4
    21       21           4
    21       22           3
    21       23           4
    21       29           1
    21       53           1
    21       85           0
    22        6           3
    22       18           2
    22       21           2
    22       22           0
    22       24           1
    22       30           4
    22       54           1
    22       86           4
    23        7           1
    23       19           3
    23       21           2
    23       23           2
    23       24           2
    23       31           1
    23       55           0
    23       87           2
    24        8           0
    24       20           4
    24       22           2
    24       23           3
    24       24           2
    24       32           0
    24       56           1
    24       88           2
    25        9           3
    25       17           4
    25       25           1
    25       26           0
    25       27           3
    25       29           2
    25       57           0
    25       89           0
    26       10           3
    26       18           4
    26       25           0
    26       26           4
    26       28           4
    26       30           4
    26       58           3
    26       90           2
    27       11           4
    27       19           2
    27       25           2
    27       27           2
    27       28           2
    27       31           1
    27       59           2
    27       91           2
    28       12           2
    28       20           4
    28       26           0
    28       27           3
    28       28           4
    28       32           4
    28       60           4
    28       92           4
    29       13           2
    29       21           3
    29       25           3
    29       29           3
    29       30           0
    29       31           4
    29       61           4
    29       93           1
    30       14           4
    30       22           3
    30       26           4
    30       29           4
    30       30           2
    30       32           3
    30       62           0
    30       94           4
    31       15           4
    31       23           1
    31       27           1
    31       29           4
    31       31           1
    31       32           2
    31       63           3
    31       95           2
    32       16           0
    32       24           4
    32       28           1
    32       30           0
    32       31           1
    32       32           0
    32       64           1
    32       96           1
    33        1           3
    33       33           2
    33       34           2
    33       35           2
    33       37           0
    33       41           3
    33       49           2
    33       97           0
    34        2           3
    34       33           0
    34       34           0
    34       36           0
    34       38           3
    34       42           1
    34       50           1
    34       98           2
    35        3           4
    35       33           1
    35       35           2
    35       36           4
    35       39           2
    35       43           2
    35       51           3
    35       99           0
    36        4           0
    36       34           3
    36       35           1
    36       36           0
    36       40           1
    36       44           1
    36       52           0
    36      100           1
    37        5           2
    37       33           0
    37       37           2
    37       38           2
    37       39           3
    37       45           1
    37       53           1
    37      101           1
    38        6           0
    38       34           0
    38       37           0
    38       38           4
    38       40           3
    38       46           4
    38       54           2
    38      102           2
    39        7           2
    39       35           4
    39       37           4
    39       39           1
    39       40           1
    39       47           4
    39       55           4
    39      103           4
    40        8           1
    40       36           4
    40       38           3
    40       39           1
    40       40           1
    40       48           1
    40       56           1
    40      104           2
    41        9           3
    41       33           1
    41       41           3
    41       42           3
    41       43           1
    41       45           4
    41       57           4
    41      105           1
    42       10           0
    42       34           1
    42       41           3
    42       42           3
    42       44           2
    42       46           1
    42       58           0
    42      106           2
    43       11           0
    43       35           2
    43       41           1
    43       43           1
    43       44           3
    43       47           1
    43       59           3
    43      107           0
    44       12           2
    44       36           1
    44       42           3
    44       43           2
    44       44           4
    44       48           1
    44       60           0
    44      108           1
    45       13           1
    45       37           4
    45       41           1
    45       45           0
    45       46           4
    45       47           4
    45       61           3
    45      109           3
    46       14           0
    46       38           3
    46       42           3
    46       45           4
    46       46           1
    46       48           3
    46       62           0
    46      110           1
    47       15           1
    47       39           2
    47       43           1
    47       45           4
    47       47           2
    47       48           1
    47       63           2
    47      111           2
    48       16           1
    48       40           4
    48       44           0
    48       46           2
    48       47           0
    48       48           4
    48       64           2
    48      112           1
    49       17           3
    49       33           3
    49       49           4
    49       50           1
    49       51           4
    49       53           3
    49       57           3
    49      113           1
    50       18           2
    50       34           2
    50       49           0
    50       50           1
    50       52           3
    50       54           4
    50       58           3
    50      114           0
    51       19           1
    51       35           0
    51       49           0
    51       51           0
    51       52           0
    51       55           3
    51       59           4
    51      115           4
    52       20           3
    52       36           3
    52       50           3
    52       51           1
    52       52           1
    52       56           3
    52       60           4
    52      116           1
    53       21           0
    53       37           4
    53       49           2
    53       53           2
    53       54           1
    53       55           3
    53       61           2
    53      117           3
    54       22           4
    54       38           4
    54       50           0
    54       53           3
    54       54           2
    54       56           2
    54       62           0
    54      118           0
    55       23           4
    55       39           2
    55       51           3
    55       53           3
    55       55           2
    55       56           2
    55       63           1
    55      119           2
    56       24           1
    56       40           2
    56       52           2
    56       54           0
    56       55           2
    56       56           1
    56       64           2
    56      120           0
    57       25           4
    57       41           2
    57       49           2
    57       57           3
    57       58           2
    57       59           1
    57       61           1
    57      121           3
    58       26           3
    58       42           2
    58       50           4
    58       57           0
    58       58           3
    58       60           4
    58       62           4
    58      122           3
    59       27           0
    59       43           3
    59       51           0
    59       57           4
    59       59           2
    59       60           1
    59       63           2
    59      123           2
    60       28           3
    60       44           3
    60       52           2
    60       58           0
    60       59           2
    60       60           1
    60       64           3
    60      124           0
    61       29           3
    61       45           4
    61       53           1
    61       57           0
    61       61           4
    61       62           3
    61       63           4
    61      125           2
    62       30           0
    62       46           0
    62       54           4
    62       58           2
    62       61           1
    62       62           4
    62       64           0
    62      126           0
    63       31           1
    63       47           3
    63       55           0
    63       59           2
    63       61           3
    63       63           0
    63       64           0
    63      127           3
    64       32           1
    64       48           3
    64       56           1
    64       60           4
    64       62           3
    64       63           2
    64       64           4
    64      128           2
    65        1           1
    65       65           0
    65       66           1
    65       67           1
    65       69           4
    65       73           3
    65       81           0
    65       97           3
    66        2           2
    66       65           1
    66       66           0
    66       68           0
    66       70           3
    66       74           0
    66       82           3
    66       98           2
    67        3           2
    67       65           4
    67       67           2
    67       68           1
    67       71           0
    67       75           4
    67       83           1
    67       99           2
    68        4           4
    68       66           3
    68       67           0
    68       68           2
    68       72           2
    68       76           0
    68       84           4
    68      100           0
    69        5           0
    69       65           0
    69       69           1
    69       70           3
    69       71           2
    69       77           3
    69       85           1
    69      101           1
    70        6           0
    70       66           1
    70       69           0
    70       70           2
    70       72           2
    70       78           4
    70       86           3
    70      102           3
    71        7           1
    71       67           3
    71       69           2
    71       71           1
    71       72           0
    71       79           1
    71       87           2
    71      103           1
    72        8           4
    72       68           0
    72       70           3
    72       71           2
    72       72           3
    72       80           0
    72       88           4
    72      104           3
    73        9           2
    73       65           4
    73       73           0
    73       74           0
    73       75           3
    73       77           4
    73       89           3
    73      105           2
    74       10           2
    74       66           3
    74       73           3
    74       74           1
    74       76           1
    74       78           1
    74       90           2
    74      106           4
    75       11           2
    75       67           4
    75       73           2
    75       75           0
    75       76           3
    75       79           0
    75       91           1
    75      107           4
    76       12           3
    76       68           4
    76       74           0
    76       75           0
    76       76           4
    76       80           0
    76       92           0
    76      108           3
    77       13           1
    77       69           2
    77       73           3
    77       77           0
    77       78           3
    77       79           4
    77       93           2
    77      109           0
    78       14           1
    78       70           1
    78       74           0
    78       77           3
    78       78           1
    78       80           4
    78       94           4
    78      110           2
    79       15           1
    79       71           2
    79       75           3
    79       77           3
    79       79           4
    79       80           3
    79       95           0
    79      111           2
    80       16           3
    80       72           1
    80       76           2
    80       78           2
    80       79           2
    80       80           4
    80       96           3
    80      112           4
    81       17           2
    81       65           1
    81       81           1
    81       82           3
    81       83           4
    81       85           1
    81       89           0
    81      113           2
    82       18           0
    82       66           4
    82       81           4
    82       82           4
    82       84           2
    82       86           0
    82       90           3
    82      114           3
    83       19           3
    83       67           1
    83       81           4
    83       83           4
    83       84           0
    83       87           2
    83       91           3
    83      115           3
    84       20           1
    84       68           1
    84       82           4
    84       83           3
    84       84           1
    84       88           3
    84       92           4
    84      116           0
    85       21           3
    85       69           1
    85       81           2
    85       85           1
    85       86           4
    85       87           2
    85       93           4
    85      117           4
    86       22           2
    86       70           2
    86       82           0
    86       85           3
    86       86           2
    86       88           4
    86       94           4
    86      118           3
    87       23           4
    87       71           2
    87       83           4
    87       85           1
    87       87           1
    87       88           2
    87       95           3
    87      119           2
    88       24           3
    88       72           0
    88       84           0
    88       86           1
    88       87           1
    88       88           4
    88       96           3
    88      120           1
    89       25           0
    89       73           1
    89       81           1
    89       89           3
    89       90           3
    89       91           0
    89       93           1
    89      121           2
    90       26           4
    90       74           0
    90       82           3
    90       89           1
    90       90           2
    90       92           0
    90       94           0
    90      122           0
    91       27           3
    91       75           1
    91       83           0
    91       89           3
    91       91           4
    91       92           1
    91       95           4
    91      123           1
    92       28           1
    92       76           4
    92       84           2
    92       90           0
    92       91           3
    92       92           3
    92       96           4
    92      124           0
    93       29           1
    93       77           3
    93       85           4
    93       89           3
    93       93           0
    93       94           2
    93       95           0
    93      125           2
    94       30           0
    94       78           3
    94       86           1
    94       90           4
    94       93           2
    94       94           4
    94       96           4
    94      126           0
    95       31           0
    95       79           3
    95       87           1
    95       91           0
    95       93           0
    95       95           4
    95       96           1
    95      127           2
    96       32           1
    96       80           2
    96       88           4
    96       92           2
    96       94           3
    96       95           0
    96       96           2
    96      128           0
    97       33           3
    97       65           0
    97       97           3
    97       98           2
    97       99           2
    97      101           1
    97      105           4
    97      113           2
    98       34           1
    98       66           2
    98       97           3
    98       98           3
    98      100           1
    98      102           3
    98      106           0
    98      114           1
    99       35           3
    99       67           4
    99       97           1
    99       99           2
    99      100           3
    99      103           3
    99      107           3
    99      115           0
   100       36           3
   100       68           4
   100       98           0
   100       99           1
   100      100           0
   100      104           2
   100      108           0
   100      116           2
   101       37           2
   101       69           0
   101       97           4
   101      101           4
   101      102           1
   101      103           1
   101      109           1
   101      117           4
   102       38           4
   102       70           0
   102       98           0
   102      101           2
   102      102           1
   102      104           4
   102      110           4
   102      118           1
   103       39           3
   103       71           0
   103       99           2
   103      101           1
   103      103           1
   103      104           1
   103      111           1
   103      119           3
   104       40           3
   104       72           4
   104      100           3
   104      102           0
   104      103           2
   104      104           1
   104      112           2
   104      120           3
   105       41           0
   105       73           0
   105       97           3
   105      105           3
   105      106           0
   105      107           4
   105      109           1
   105      121           4
   106       42           1
   106       74           2
   106       98           4
   106      105           2
   106      106           4
   106      108           2
   106      110           2
   106      122           3
   107       43           2
   107       75           4
   107       99           3
   107      105           3
   107      107           4
   107      108           2
   107      111           0
   107      123           4
   108       44           1
   108       76           2
   108      100           0
   108      106           0
   108      107           0
   108      108           4
   108      112           0
   108      124           1
   109       45           3
   109       77           0
   109      101           1
   109      105           4
   109      109           3
   109      110           3
   109      111           3
   109      125           2
   110       46           3
   110       78           2
   110      102           1
   110      106           0
   110      109           2
   110      110           4
   110      112           3
   110      126           4
   111       47           0
   111       79           2
   111      103           3
   111      107           0
   111      109           3
   111      111           1
   111      112           1
   111      127           2
   112       48           3
   112       80           0
   112      104           3
   112      108           1
   112      110           4
   112      111           0
   112      112           2
   112      128           4
   113       49           2
   113       81           3
   113       97           0
   113      113           2
   113      114           1
   113      115           2
   113      117           2
   113      121           0
   114       50           2
   114       82           3
   114       98           4
   114      113           3
   114      114           4
   114      116           1
   114      118           1
   114      122           1
   115       51           4
   115       83           2
   115       99           3
   115      113           2
   115      115           1
   115      116           3
   115      119           0
   115      123           4
   116       52           4
   116       84           3
   116      100           1
   116      114           0
   116      115           1
   116      116           3
   116      120           0
   116      124           3
   117       53           3
   117       85           0
   117      101           4
   117      113           3
   117      117           0
   117      118           2
   117      119           4
   117      125           0
   118       54           3
   118       86           2
   118      102           3
   118      114           3
   118      117           0
   118      118           1
   118      120           1
   118      126           4
   119       55           3
   119       87           3
   119      103           3
   119      115           2
   119      117           0
   119      119           0
   119      120           1
   119      127           2
   120       56           2
   120       88           3
   120      104           0
   120      116           2
   120      118           4
   120      119           3
   120      120           1
   120      128           3
   121       57           1
   121       89           0
   121      105           2
   121      113           4
   121      121           2
   121      122           4
   121      123           4
   121      125           3
   122       58           3
   122       90           0
   122      106           0
   122      114           0
   122      121           2
   122      122           0
   122      124           0
   122      126           0
   123       59           0
   123       91           0
   123      107           1
   123      115           0
   123      121           4
   123      123           4
   123      124           2
   123      127           1
   124       60           3
   124       92           2
   124      108           2
   124      116           2
   124      122           3
   124      123           3
   124      124           4
   124      128           3
   125       61           2
   125       93           1
   125      109           3
   125      117           3
   125      121           1
   125      125           4
   125      126           2
   125      127           2
   126       62           1
   126       94           0
   126      110           3
   126      118           2
   126      122           1
   126      125           0
   126      126           2
   126      128           2
   127       63           3
   127       95           3
   127      111           0
   127      119           1
   127      123           4
   127      125           3
   127      127           4
   127      128           4
   128       64           0
   128       96           4
   128      112           1
   128      120           2
   128      124           1
   128      126           4
   128      127           2
   128      128           0
